num_offers = 40;
num_halls = 10;
start=[16,50,45,58,3,8,17,42,49,50,58,10,15,2,37,48,71,48,72,46,11,88,8,30,31,23,4,64,43,26,14,58,29,3,7,19,42,14,50,3];
end=[69,64,94,77,26,39,95,54,76,98,75,34,71,29,82,67,94,89,94,65,33,93,82,35,50,73,12,69,64,57,68,83,81,45,12,56,92,44,99,39];
price=[5352,222,2859,1639,1358,1137,6775,614,2029,594,768,1730,629,375,3598,662,1060,2673,888,1211,341,137,3206,567,365,1560,294,290,632,1749,4626,2323,4406,1888,574,1683,1319,1663,1081,3161];
requirement=[425,991,764,627,940,866,603,741,555,907,589,266,664,216,226,461,465,856,211,204,776,885,604,801,376,508,549,641,877,276,480,852,437,511,499,293,912,306,937,555];
capacity=[683,324,365,585,640,902,581,348,950,407];
